WARNING: for repeatability, setting FPU to use double precision
============================[ Problem Statistics ]=============================
|                                                                             |
|  Number of variables:           100                                         |
|  Number of clauses:             449                                         |
|  Parse time:                   0.00 s                                       |
|  Eliminated clauses:           0.00 Mb                                      |
|  Simplification time:          0.00 s                                       |
|                                                                             |
============================[ Search Statistics ]==============================
| Conflicts |          ORIGINAL         |          LEARNT          | Progress |
|           |    Vars  Clauses Literals |    Limit  Clauses Lit/Cl |          |
===============================================================================
|       100 |      95      445     1364 |      163      100      6 |  0.010 % |
|       250 |      94      434     1327 |      179       95      6 |  1.010 % |
===============================================================================
restarts              : 3
conflicts             : 330            (104068 /sec)
decisions             : 406            (0.00 % random) (128035 /sec)
propagations          : 7592           (2394197 /sec)
conflict literals     : 2052           (18.12 % deleted)
Memory used           : 13.00 MB
CPU time              : 0.003171 s

SATISFIABLE
